# Solution for model qis_1000_800_862
# Objective value = 2.9952047423661929e+02
x[0] 0
x[1] 0
x[2] 1
x[3] 1
x[4] 1
x[5] 1
x[6] 0
x[7] 9.9999993805356480e-01
x[8] 0
x[9] 1
x[10] 1
x[11] 0
x[12] 1
x[13] 1
x[14] 1
x[15] 1
x[16] 1
x[17] 0
x[18] 0
x[19] 0
x[20] 0
x[21] 1
x[22] 0
x[23] 0
x[24] 1
x[25] 0
x[26] 1
x[27] 0
x[28] 1.0000004716284150e+00
x[29] 0
x[30] 0
x[31] 0
x[32] 1
x[33] 0
x[34] 1
x[35] 0
x[36] 0
x[37] 0
x[38] 0
x[39] 1.0000000977734544e+00
x[40] 0
x[41] 0
x[42] 0
x[43] 1
x[44] 1
x[45] 1
x[46] 1
x[47] 0
x[48] 0
x[49] 0
x[50] 0
x[51] 9.9999999999999978e-01
x[52] 1
x[53] 0
x[54] 0
x[55] 0
x[56] 0
x[57] 0
x[58] 0
x[59] 0
x[60] 1
x[61] 9.9999999999999967e-01
x[62] 0
x[63] 1
x[64] 1
x[65] 1
x[66] 0
x[67] 1
x[68] 0
x[69] 1
x[70] 0
x[71] 0
x[72] 1
x[73] 1
x[74] 0
x[75] 0
x[76] 1
x[77] 0
x[78] 0
x[79] 0
x[80] 0
x[81] 1
x[82] 1.3026777971707372e-07
x[83] 0
x[84] 1
x[85] 1
x[86] 0
x[87] 0
x[88] 1
x[89] 1
x[90] 1
x[91] 1
x[92] 1
x[93] 1
x[94] 0
x[95] 1
x[96] 1
x[97] 1
x[98] 1
x[99] 0
x[100] 1
x[101] 1.0000004719133397e+00
x[102] 0
x[103] 0
x[104] 1
x[105] 1
x[106] 0
x[107] 0
x[108] 1
x[109] 1
x[110] 0
x[111] 0
x[112] 1
x[113] 1
x[114] 0
x[115] 1
x[116] 1
x[117] 1
x[118] 1
x[119] 0
x[120] 0
x[121] 0
x[122] 0
x[123] 1
x[124] 1
x[125] 1
x[126] 1
x[127] 1
x[128] 0
x[129] 0
x[130] 1
x[131] 0
x[132] 1
x[133] 0
x[134] 1
x[135] 1
x[136] 1
x[137] 0
x[138] 0
x[139] 1
x[140] 0
x[141] 1.0000001178182352e+00
x[142] 0
x[143] 0
x[144] 0
x[145] 0
x[146] -1.1467240541693521e-07
x[147] 0
x[148] 1
x[149] 1
x[150] 0
x[151] 1
x[152] 0
x[153] 0
x[154] 1
x[155] 1
x[156] 0
x[157] 1
x[158] 1
x[159] 1
x[160] 1
x[161] 1
x[162] 1
x[163] 0
x[164] 1
x[165] 0
x[166] 0
x[167] 1
x[168] 1
x[169] 1
x[170] 9.9999987142419233e-01
x[171] 0
x[172] 1
x[173] 0
x[174] 0
x[175] 1
x[176] 1
x[177] 1
x[178] 0
x[179] 0
x[180] 1
x[181] 0
x[182] 1
x[183] 0
x[184] 0
x[185] 0
x[186] 1
x[187] 0
x[188] 0
x[189] 1
x[190] 9.9999999999999989e-01
x[191] 1
x[192] 0
x[193] 0
x[194] 1
x[195] 1
x[196] 9.9999986944046171e-01
x[197] 0
x[198] 1
x[199] 0
x[200] 0
x[201] 0
x[202] 1
x[203] 1
x[204] 0
x[205] 0
x[206] 1
x[207] 0
x[208] 0
x[209] 1
x[210] 0
x[211] 0
x[212] 0
x[213] 0
x[214] 0
x[215] 0
x[216] 0
x[217] 1
x[218] 0
x[219] 0
x[220] 0
x[221] 1
x[222] 0
x[223] 1
x[224] 0
x[225] 0
x[226] 0
x[227] 0
x[228] 1
x[229] 1
x[230] 1
x[231] 1
x[232] 0
x[233] 0
x[234] 0
x[235] 1
x[236] 0
x[237] 0
x[238] 1
x[239] 0
x[240] 1
x[241] 0
x[242] 0
x[243] 0
x[244] 1
x[245] 1
x[246] 1.2986205214956090e-07
x[247] 0
x[248] 0
x[249] 0
x[250] 0
x[251] 1
x[252] 0
x[253] 0
x[254] 0
x[255] 1
x[256] 0
x[257] 1
x[258] 6.4803131334540573e-08
x[259] 0
x[260] 0
x[261] 1
x[262] 0
x[263] 1.0000001304708512e+00
x[264] 1
x[265] 0
x[266] 0
x[267] 1
x[268] 1
x[269] 1
x[270] 1
x[271] 1.0000004719386777e+00
x[272] 1
x[273] 1
x[274] 1
x[275] 0
x[276] 0
x[277] 0
x[278] 0
x[279] 1
x[280] 0
x[281] 0
x[282] 0
x[283] 0
x[284] 0
x[285] 0
x[286] 1
x[287] 0
x[288] 1
x[289] 0
x[290] 1
x[291] 0
x[292] 1
x[293] 1
x[294] 1
x[295] 0
x[296] 1
x[297] 0
x[298] 1
x[299] 1
x[300] 1
x[301] 1
x[302] 1
x[303] 0
x[304] 1
x[305] 0
x[306] 1
x[307] 1
x[308] 1
x[309] 0
x[310] 1
x[311] 0
x[312] 1
x[313] 0
x[314] 1
x[315] 0
x[316] 0
x[317] 0
x[318] 1
x[319] 0
x[320] 0
x[321] 1
x[322] 0
x[323] 1
x[324] 0
x[325] 0
x[326] 1
x[327] 9.9999986944046138e-01
x[328] 1
x[329] 0
x[330] 1
x[331] 0
x[332] 1
x[333] 1
x[334] 1
x[335] 1
x[336] 0
x[337] 1
x[338] 0
x[339] 0
x[340] 1
x[341] 0
x[342] 1
x[343] 0
x[344] 1
x[345] 0
x[346] 1
x[347] 0
x[348] 0
x[349] 0
x[350] 0
x[351] 1
x[352] 1
x[353] 1
x[354] 0
x[355] -2.3601147748252314e-07
x[356] 0
x[357] 0
x[358] 0
x[359] -1.1581489225167490e-07
x[360] 0
x[361] 0
x[362] 1
x[363] 1
x[364] 1
x[365] 0
x[366] 9.9999997202295510e-01
x[367] 0
x[368] 1
x[369] 0
x[370] 0
x[371] 0
x[372] 1
x[373] 0
x[374] 0
x[375] 1
x[376] 0
x[377] 0
x[378] 0
x[379] 1
x[380] 1
x[381] 1
x[382] 1
x[383] 0
x[384] 1
x[385] 0
x[386] 1
x[387] 0
x[388] 0
x[389] 0
x[390] 0
x[391] 1
x[392] 1
x[393] 1
x[394] 0
x[395] 1
x[396] 0
x[397] 1
x[398] 1
x[399] 1
x[400] 1
x[401] 1
x[402] 1
x[403] 1
x[404] 0
x[405] 0
x[406] 1.0000002352655921e+00
x[407] 1
x[408] -2.36011477645963e-07
x[409] 0
x[410] 9.9999999999999944e-01
x[411] 1
x[412] 0
x[413] 1
x[414] 1
x[415] 1
x[416] 0
x[417] 0
x[418] 0
x[419] 0
x[420] 1
x[421] 1
x[422] 1
x[423] 1
x[424] 0
x[425] 1
x[426] 9.9999987277379510e-01
x[427] 1
x[428] 0
x[429] 0
x[430] 0
x[431] 0
x[432] 1
x[433] 0
x[434] 0
x[435] 0
x[436] 0
x[437] 1
x[438] 0
x[439] 0
x[440] 1
x[441] 0
x[442] 0
x[443] 1
x[444] 0
x[445] 0
x[446] 0
x[447] 0
x[448] 1
x[449] 0
x[450] 0
x[451] 0
x[452] 0
x[453] 0
x[454] 1
x[455] 0
x[456] 1.3045816435536775e-07
x[457] 0
x[458] 0
x[459] 1
x[460] 0
x[461] 0
x[462] 1
x[463] 9.9999977485414160e-01
x[464] 0
x[465] 1
x[466] 0
x[467] 1
x[468] 1
x[469] 1
x[470] 0
x[471] 0
x[472] 0
x[473] 0
x[474] 9.9999986944046171e-01
x[475] 1
x[476] 0
x[477] 0
x[478] 1
x[479] 1
x[480] 0
x[481] 1
x[482] 0
x[483] 1
x[484] 1
x[485] 0
x[486] 0
x[487] 1
x[488] 0
x[489] 0
x[490] 0
x[491] 1
x[492] 1
x[493] 1
x[494] 0
x[495] 2.2825019662093743e-07
x[496] 1
x[497] 1
x[498] 0
x[499] 0
x[500] 0
x[501] 1
x[502] 0
x[503] 1
x[504] 1
x[505] 0
x[506] 1
x[507] 0
x[508] 9.9999993472023063e-01
x[509] 0
x[510] 1
x[511] 0
x[512] 0
x[513] 0
x[514] 0
x[515] 0
x[516] 0
x[517] 1
x[518] 0
x[519] 0
x[520] 0
x[521] 6.4961257222987314e-08
x[522] 1
x[523] 1
x[524] 1
x[525] 1
x[526] 1
x[527] 0
x[528] 0
x[529] 1
x[530] 1
x[531] 1
x[532] 1
x[533] -1.3055954006952176e-07
x[534] 0
x[535] 1
x[536] 0
x[537] 0
x[538] 1
x[539] 1.2904126822815165e-07
x[540] 1
x[541] 0
x[542] 0
x[543] 1
x[544] 1
x[545] 0
x[546] 1
x[547] 1
x[548] 9.9999993805356446e-01
x[549] 0
x[550] 1
x[551] 1
x[552] 0
x[553] 1
x[554] 1
x[555] 1
x[556] 1
x[557] 0
x[558] 1
x[559] 1
x[560] 0
x[561] 0
x[562] 0
x[563] 1
x[564] 1
x[565] 0
x[566] 1
x[567] 0
x[568] 0
x[569] 0
x[570] 1
x[571] 0
x[572] 1
x[573] 1
x[574] 1
x[575] 1
x[576] 0
x[577] 1
x[578] 0
x[579] 1
x[580] 0
x[581] 0
x[582] 1
x[583] 1
x[584] 1
x[585] 1
x[586] 0
x[587] 0
x[588] 0
x[589] -6.8978422138124266e-08
x[590] 0
x[591] 1
x[592] 1
x[593] 0
x[594] 1
x[595] 0
x[596] 1
x[597] 1
x[598] 0
x[599] 1
x[600] 0
x[601] 0
x[602] 0
x[603] 1
x[604] 0
x[605] 0
x[606] 1
x[607] 0
x[608] 0
x[609] 0
x[610] 1
x[611] 1
x[612] 1.0000000343025119e+00
x[613] 1
x[614] 1
x[615] 1
x[616] 0
x[617] 0
x[618] 1
x[619] 1
x[620] 0
x[621] 1
x[622] 1.0000001301987995e+00
x[623] 0
x[624] 0
x[625] 1
x[626] 1
x[627] 1
x[628] 0
x[629] 1
x[630] -4.7202295497790746e-07
x[631] 0
x[632] 1
x[633] 1
x[634] 0
x[635] 0
x[636] 0
x[637] 0
x[638] 1
x[639] 0
x[640] 0
x[641] 1
x[642] 0
x[643] 1
x[644] 1
x[645] 0
x[646] 0
x[647] 0
x[648] 1
x[649] -4.6858000633282365e-07
x[650] 0
x[651] 1
x[652] 1
x[653] 0
x[654] 5.27689544869942e-07
x[655] 0
x[656] 0
x[657] 0
x[658] 1
x[659] 0
x[660] 0
x[661] 0
x[662] 0
x[663] 0
x[664] 0
x[665] 0
x[666] 1
x[667] 0
x[668] 1
x[669] 0
x[670] 1
x[671] 1
x[672] 0
x[673] 1
x[674] 0
x[675] 0
x[676] 0
x[677] 0
x[678] 1
x[679] 0
x[680] 0
x[681] 0
x[682] 1
x[683] 0
x[684] 0
x[685] -4.6868962150741779e-07
x[686] 1.0000004718741018e+00
x[687] 0
x[688] 1
x[689] 1
x[690] 0
x[691] 0
x[692] 0
x[693] 0
x[694] 0
x[695] 1
x[696] 0
x[697] 1
x[698] 0
x[699] 1
x[700] 0
x[701] 0
x[702] 0
x[703] 0
x[704] 0
x[705] 1
x[706] 0
x[707] 1
x[708] 1
x[709] 1
x[710] 0
x[711] 0
x[712] 1.3047064951020077e-07
x[713] 0
x[714] 0
x[715] 0
x[716] 1
x[717] 1
x[718] 0
x[719] 0
x[720] 0
x[721] 1
x[722] 0
x[723] 1
x[724] 0
x[725] 1
x[726] 0
x[727] 0
x[728] 0
x[729] 1
x[730] 0
x[731] 1
x[732] 0
x[733] 4.71162170317709e-07
x[734] 0
x[735] 1
x[736] 0
x[737] 0
x[738] 1
x[739] 0
x[740] 0
x[741] 1
x[742] 0
x[743] 0
x[744] 0
x[745] 1
x[746] 1
x[747] 1
x[748] 1
x[749] 1
x[750] 0
x[751] 1
x[752] 1
x[753] 0
x[754] 1
x[755] 1
x[756] 1.0000002359268390e+00
x[757] 1
x[758] 0
x[759] 1
x[760] 1
x[761] 1
x[762] 1
x[763] 6.5163827480467324e-08
x[764] 1
x[765] 0
x[766] 0
x[767] 1
x[768] 0
x[769] 1
x[770] 0
x[771] 1
x[772] 1
x[773] 1
x[774] 0
x[775] 0
x[776] 0
x[777] 0
x[778] 0
x[779] 0
x[780] 0
x[781] 0
x[782] 1
x[783] 1
x[784] 1
x[785] 1
x[786] 1
x[787] 0
x[788] 0
x[789] 0
x[790] 1
x[791] 0
x[792] 0
x[793] 1
x[794] 1
x[795] 0
x[796] 0
x[797] 0
x[798] 0
x[799] 0
x[800] 1
x[801] 0
x[802] 1
x[803] 1
x[804] 1
x[805] 0
x[806] 1
x[807] 1
x[808] 1
x[809] 0
x[810] 0
x[811] 0
x[812] 0
x[813] 1
x[814] 1
x[815] 0
x[816] 0
x[817] 1
x[818] 1
x[819] 0
x[820] 0
x[821] 0
x[822] 0
x[823] 1
x[824] 0
x[825] 1
x[826] 1
x[827] 0
x[828] 0
x[829] 0
x[830] 1
x[831] 0
x[832] 1
x[833] 0
x[834] 1
x[835] 0
x[836] 0
x[837] 0
x[838] 0
x[839] 1
x[840] 1
x[841] 1
x[842] 0
x[843] 1
x[844] 1
x[845] 0
x[846] 0
x[847] 0
x[848] 1
x[849] 1
x[850] 1
x[851] 1
x[852] 0
x[853] 1
x[854] 1
x[855] 0
x[856] 1
x[857] 0
x[858] 1
x[859] 1
x[860] 1
x[861] 0
x[862] 0
x[863] 0
x[864] 0
x[865] 1
x[866] 0
x[867] 1
x[868] 1
x[869] 1
x[870] 1
x[871] 1
x[872] 0
x[873] 0
x[874] 1
x[875] 0
x[876] 0
x[877] 0
x[878] 0
x[879] 1
x[880] 1
x[881] 0
x[882] 1
x[883] 0
x[884] 0
x[885] 1
x[886] 0
x[887] 1
x[888] 1
x[889] 0
x[890] 2.5996271088388284e-07
x[891] 0
x[892] 0
x[893] 0
x[894] 0
x[895] 0
x[896] 0
x[897] 0
x[898] 1
x[899] 0
x[900] 1
x[901] 0
x[902] 1
x[903] 1
x[904] 0
x[905] 1
x[906] 0
x[907] 0
x[908] 1
x[909] -4.7202295499791057e-07
x[910] 1
x[911] 1
x[912] 1
x[913] 0
x[914] 1
x[915] 1
x[916] 1
x[917] 0
x[918] 1
x[919] 1
x[920] 1
x[921] 1
x[922] 1
x[923] 1
x[924] 1
x[925] 1
x[926] 1
x[927] 0
x[928] 1
x[929] 0
x[930] 0
x[931] 1
x[932] 0
x[933] 0
x[934] 0
x[935] 0
x[936] 0
x[937] 0
x[938] 0
x[939] 0
x[940] 0
x[941] 0
x[942] 0
x[943] 1
x[944] 1
x[945] 1
x[946] 1
x[947] 1
x[948] 0
x[949] 1
x[950] 0
x[951] 1
x[952] 0
x[953] 1
x[954] 1
x[955] 0
x[956] 0
x[957] 0
x[958] 0
x[959] 0
x[960] 1
x[961] 0
x[962] 1
x[963] 1.30410319702074e-07
x[964] 0
x[965] 1
x[966] 1
x[967] 1
x[968] 1
x[969] 1
x[970] 1
x[971] 0
x[972] 1
x[973] 1
x[974] 0
x[975] 0
x[976] 0
x[977] 1
x[978] 1
x[979] 1
x[980] 1.0000002358259947e+00
x[981] 1
x[982] 0
x[983] 1
x[984] 1
x[985] 1
x[986] 0
x[987] -4.7202295494486179e-07
x[988] 1
x[989] 1
x[990] 0
x[991] 0
x[992] 9.9999987286268377e-01
x[993] 0
x[994] 0
x[995] 0
x[996] 0
x[997] 1
x[998] 1
x[999] 1
